c description: Random 3-CNF over 13 variables and 55 clauses
c generator: CNFgen (0.9.2)
c copyright: (C) 2012-2022 Massimo Lauria <massimo.lauria@uniroma1.it>
c url: https://massimolauria.net/cnfgen
c command line: cnfgen --output CNF_4.28/13_bit_55_938.cnf randkcnf 3 13 55
c
p cnf 13 55
3 -5 -7 0
-3 10 11 0
3 -11 12 0
-4 -5 -8 0
-1 -2 -13 0
-2 6 12 0
-1 11 12 0
2 -3 -12 0
-8 10 11 0
1 6 13 0
4 6 -8 0
-6 -9 -13 0
1 2 -10 0
-10 -11 -12 0
3 -5 10 0
-6 10 -12 0
3 -4 -11 0
-7 -10 -13 0
-3 -8 11 0
-2 -9 13 0
1 -5 6 0
9 -11 12 0
1 7 -11 0
-5 -6 -9 0
2 8 10 0
-2 -10 11 0
-2 6 -7 0
3 4 13 0
2 8 -10 0
1 -4 5 0
3 6 -13 0
-3 -10 -12 0
8 -11 12 0
5 -10 -13 0
3 -7 -12 0
-7 12 13 0
-4 8 -10 0
7 -8 -12 0
-2 4 -9 0
-3 -9 -13 0
-5 7 13 0
-11 -12 -13 0
2 6 -8 0
5 -8 -10 0
1 8 9 0
-4 7 13 0
3 -7 11 0
1 -6 -9 0
3 4 9 0
1 8 -10 0
6 10 -11 0
1 -4 -6 0
11 -12 13 0
2 -3 10 0
9 -10 -11 0
